Input: forum-13crafb.prec15.dzn
============================================================
Total Runtime: 13.3537 seconds
Input parsing: 0.0012 seconds
Constraint building: 2.4118 seconds
MaxSAT solving: 7.1158 seconds
============================================================

Total variables: 527367
Total clauses: 881553
MaxSAT found with cost: 0
NO SOLUTION FOUND
